Running HiGHS 1.7.2 (git hash: 5ce7a2753): Copyright (c) 2024 HiGHS under MIT licence terms
Coefficient ranges:
  Matrix [1e+00, 1e+00]
  Cost   [1e+00, 1e+00]
  Bound  [1e+00, 1e+00]
  RHS    [1e+00, 1e+00]
Presolving model
72177 rows, 2556 cols, 146734 nonzeros  0s
37401 rows, 2556 cols, 77182 nonzeros  0s
12425 rows, 2554 cols, 61732 nonzeros  1s
12283 rows, 2554 cols, 61591 nonzeros  2s
Objective function is integral with scale 1

Solving MIP model with:
   12283 rows
   2554 cols (2554 binary, 0 integer, 0 implied int., 0 continuous)
   61591 nonzeros

        Nodes      |    B&B Tree     |            Objective Bounds              |  Dynamic Constraints |       Work      
     Proc. InQueue |  Leaves   Expl. | BestBound       BestSol              Gap |   Cuts   InLp Confl. | LpIters     Time

         0       0         0   0.00%   2               inf                  inf        0      0      0         0     2.2s
         0       0         0   0.00%   4.790811865     inf                  inf        0      0      6     21847    19.8s
         0       0         0   0.00%   4.815442694     inf                  inf        1      1     11     24429    27.0s
 C       0       0         0   0.00%   4.825145734     12                59.79%        4      4     88     26620    32.0s
 L       0       0         0   0.00%   4.825145734     11                56.14%        4      4     88     26620    55.3s
        14       0         1   0.01%   4.825145734     11                56.14%        6      4    109    196287   131.8s
        82       9        28   0.02%   4.825145734     11                56.14%       27      4    408    212784   136.9s

Restarting search from the root node
Model after restart has 3226 rows, 706 cols (706 bin., 0 int., 0 impl., 0 cont.), and 15722 nonzeros

       100       0         0   0.00%   5.234409996     11                52.41%        1      0      0    216851   138.3s
       100       0         0   0.00%   5.437654044     11                50.57%        1      0      4    222383   139.5s
       111       0         1   0.10%   7               11                36.36%      494     13     22    248164   146.5s
       205      14        44   0.27%   7               11                36.36%      503     14    481    367648   175.5s
       309      22        91   0.32%   7               11                36.36%      560     20    788    470672   200.3s
       478      51       156   0.32%   7               11                36.36%      607     21   1887    496606   205.4s
       610      80       211   0.32%   7               11                36.36%      662     23   2759    532933   213.0s
       801      93       293   0.32%   7               11                36.36%      734     26   3905    560067   218.1s
 T     834      52       306   0.33%   7               10                30.00%      735     17   4159    568715   219.9s
       912      57       343   0.33%   7               10                30.00%      754     19   4554    604787   227.3s
      1012      64       389   0.33%   7               10                30.00%      749     21   5142    631964   232.6s
      1109      67       434   0.33%   7               10                30.00%      754     21   5672    657645   237.6s
      1113      66       435   0.33%   7               10                30.00%      459     22   5683    682905   244.0s

        Nodes      |    B&B Tree     |            Objective Bounds              |  Dynamic Constraints |       Work      
     Proc. InQueue |  Leaves   Expl. | BestBound       BestSol              Gap |   Cuts   InLp Confl. | LpIters     Time

      1222      70       483   0.34%   7               10                30.00%      432     26   6142    718545   250.0s
      1322      82       527   0.37%   7               10                30.00%      443     28   6564    808982   267.7s
      1423      95       571   0.38%   7               10                30.00%      443     30   6872    844967   273.2s
      1524     105       616   0.40%   7               10                30.00%      481     31   7152    887939   279.5s
      1682     125       682   0.42%   7               10                30.00%      520     22   7910    920925   284.6s
      1777     139       723   0.42%   7               10                30.00%      554     23   8501    954365   289.6s
      1811     152       740   0.42%   7               10                30.00%      571     25   8698     1007k   300.0s

Solving report
  Status            Time limit reached
  Primal bound      10
  Dual bound        7
  Gap               30% (tolerance: 0.01%)
  Solution status   feasible
                    10 (objective)
                    0 (bound viol.)
                    7.12763181809e-14 (int. viol.)
                    0 (row viol.)
  Timing            300.00 (total)
                    2.22 (presolve)
                    0.00 (postsolve)
  Nodes             1811
  LP iterations     1007047 (total)
                    293714 (strong br.)
                    20380 (separation)
                    324136 (heuristics)
ARGS = ["1", "300", "selected_instances/09.txt"]
instance = (70, 966, [[10, 21, 52, 50, 57, 26, 35, 20, 40, 48, 17, 24, 28, 38, 69, 22, 44, 19, 25, 56, 53, 45, 43, 33, 68, 41, 23], [40, 48, 17, 32, 65, 69, 4, 22, 42, 66, 31, 44, 60, 56, 53, 5, 49, 13, 62, 23, 16, 47, 52, 34, 57], [49, 15, 68, 50, 34, 51, 37, 18, 9, 46, 48, 17, 59, 32, 38, 55, 69, 4, 42, 30, 31, 19, 7, 56, 36, 53, 39], [68, 41, 52, 57, 51, 26, 9, 40, 64, 2, 46, 17, 59, 24, 28, 38, 70, 63, 66, 3, 19, 8, 67, 36, 53, 39, 5, 43, 33, 6], [47, 21, 57, 61, 12, 35, 59, 24, 65, 38, 55, 69, 22, 42, 30, 63, 2, 8, 56, 45, 43, 13, 4, 62], [7, 53, 45, 49, 62, 54, 68, 41, 10, 52, 50, 34, 51, 61, 18, 35, 20, 27, 64, 17, 65, 70, 11, 69, 42, 4], [6, 47, 10, 52, 50, 12, 18, 20, 27, 64, 46, 32, 24, 70, 42, 63, 66, 31, 19, 8, 25, 45, 33, 3, 62, 54, 23, 16], [29, 31, 44, 67, 60, 53, 43, 33, 13, 15, 62, 54, 68, 57, 61, 37, 18, 20, 64, 5, 48, 7, 32, 4, 65, 38, 69, 11, 42, 30], [26, 12, 37, 20, 59, 4, 65, 38, 70, 11, 3, 42, 63, 66, 29, 44, 60, 56, 53, 45, 33, 62, 68, 47, 10, 50], [1, 7, 24, 38, 70, 55, 11, 42, 30, 29, 31, 6, 53, 45, 43, 49, 33, 13, 58, 54, 68, 23, 21, 52, 34, 57, 61, 12, 20, 9, 40, 64], [68, 23, 10, 52, 51, 37, 40, 9, 32, 24, 38, 55, 69, 42, 66, 29, 31, 44, 19, 25, 60, 36, 6, 43, 49, 33, 8, 15], [45, 39, 33, 9, 62, 68, 14, 5, 7, 47, 51, 26, 35, 20, 59, 24, 70, 10, 22, 63, 66, 31, 44, 25, 60, 56], [66, 29, 19, 67, 56, 36, 45, 33, 8, 15, 54, 23, 14, 52, 10, 57, 51, 61, 35, 2, 17, 32, 24, 5, 70, 55, 30], [59, 32, 24, 12, 55, 42, 30, 63, 13, 67, 25, 53, 58, 54, 50, 26, 37, 35, 40], [19, 67, 56, 3, 49, 33, 58, 13, 8, 23, 34, 26, 37, 35, 64, 32, 70, 11, 66], [25, 60, 45, 39, 68, 41, 47, 21, 50, 57, 61, 37, 35, 27, 64, 17, 59, 32, 65, 2, 38, 55, 22, 30, 63, 29, 31, 44, 7], [37, 20, 40, 64, 46, 48, 59, 32, 2, 38, 1, 30, 63, 4, 31, 44, 53, 3, 16, 62, 54, 6, 13, 41, 23, 47, 21, 52, 57, 26, 61], [28, 38, 70, 69, 22, 63, 29, 7, 67, 25, 56, 49, 3, 58, 23, 6, 21, 8, 57, 26, 40, 46, 48, 32], [15, 13, 47, 52, 34, 51, 61, 65, 38, 70, 42, 30, 63, 1, 66, 7, 44, 60, 4, 36, 11, 3, 58, 62, 41], [37, 17, 35, 9, 27, 40, 64, 59, 1, 7, 65, 70, 55, 69, 22, 12, 63, 66, 31, 25, 6, 8, 39, 58, 62, 41, 10, 50, 57], [1, 5, 26, 27, 64, 46, 59, 16, 32, 24, 28, 65, 30, 63, 18, 10, 56, 45, 39, 33, 58, 62, 54, 17, 52], [46, 48, 18, 59, 32, 55, 69, 63, 66, 29, 2, 31, 44, 20, 25, 60, 45, 49, 1, 5, 54, 41, 23, 47, 12, 34, 16, 26, 61, 37, 35], [11, 34, 26, 35, 15, 13, 40, 24, 65, 18, 38, 70, 10, 29, 22, 67, 53, 17, 39, 2, 58, 62, 54, 68, 1, 7], [62, 41, 10, 14, 52, 57, 26, 61, 37, 21, 23, 64, 1, 5, 46, 7, 32, 4, 11, 28, 70, 69, 12, 42, 30, 66, 13, 31, 44, 36, 39, 43], [16, 52, 34, 18, 40, 14, 48, 59, 22, 20, 55, 69, 66, 29, 31, 1, 67, 7, 56, 36, 11, 45, 49, 33, 58, 12], [9, 39, 49, 21, 58, 23, 1, 68, 4, 24, 52, 50, 12, 61, 35, 15, 64, 48, 59, 18, 38, 55, 14, 69, 22, 44, 17, 36], [61, 37, 20, 40, 21, 7, 28, 70, 55, 69, 63, 16, 67, 56, 36, 6, 53, 39, 43, 33, 58, 54, 52, 34, 51], [35, 18, 64, 32, 65, 27, 42, 30, 21, 66, 1, 67, 60, 39, 43, 4, 49, 24, 58, 62, 47, 52, 50, 34, 61], [13, 8, 47, 34, 51, 18, 61, 37, 10, 64, 48, 22, 59, 9, 23, 30, 66, 25, 31, 44, 11, 60, 56, 36, 53, 39, 33, 62, 54, 16, 41], [57, 10, 51, 14, 61, 37, 35, 28, 64, 17, 46, 48, 21, 5, 69, 19, 29, 42, 24, 31, 44, 3, 67, 16, 13, 54, 8], [8, 47, 57, 61, 37, 35, 10, 46, 22, 32, 17, 2, 20, 55, 42, 63, 7, 25, 29, 30, 11, 56, 24, 53, 45, 39, 49, 3, 12, 58, 16], [58, 14, 47, 22, 28, 52, 17, 34, 2, 21, 37, 7, 31, 64, 46, 11, 24, 3, 16, 42, 15, 13, 8, 60, 36, 53, 43, 18], [47, 12, 50, 34, 15, 13, 8, 37, 35, 10, 38, 55, 42, 66, 27, 9, 44, 67, 36, 21, 45, 39, 43, 1, 7, 25, 29, 58, 62, 54, 4, 11, 41], [23, 33, 25, 19, 29, 32, 46, 3, 48, 65, 15, 6, 70, 55, 69, 42, 63, 67, 56, 10, 49, 68, 41, 22, 28, 2, 27, 52], [28, 49, 62, 54, 20, 41, 23, 47, 1, 33, 5, 31, 50, 57, 30, 12, 26, 16, 15, 46, 6, 13, 48, 69, 66, 14, 56, 53, 22], [47, 13, 52, 51, 40, 48, 59, 65, 38, 55, 69, 27, 42, 66, 33, 60, 56, 25, 19, 29, 53, 4, 11, 43, 49, 24, 32, 58, 54, 3, 68, 26], [17, 61, 27, 20, 9, 40, 64, 33, 31, 29, 30, 11, 24, 32, 65, 3, 55, 69, 16, 63, 15, 8, 67, 60, 39, 49, 62, 14, 22, 57], [63, 18, 66, 44, 10, 67, 53, 45, 39, 58, 54, 17, 41, 9, 52, 23, 1, 33, 5, 36, 19, 61, 4, 11, 3, 40, 26, 64, 48, 16, 8, 55, 69], [12, 26, 16, 53, 38, 54, 52, 50, 57, 28, 27, 20, 40, 37, 46, 21, 48, 23, 33, 31, 29, 4, 70, 69, 24, 3, 63], [70, 42, 17, 2, 27, 20, 37, 56, 53, 23, 45, 43, 1, 36, 25, 62, 4, 11, 41, 50, 51, 39, 38, 64, 18, 59, 10, 14], [4, 24, 35, 61, 16, 6, 46, 48, 38, 40, 42, 63, 22, 17, 20, 49, 34, 62, 68, 1, 33, 19, 29, 47], [63, 66, 40, 44, 67, 60, 56, 10, 45, 14, 43, 62, 68, 28, 2, 9, 34, 50, 41, 33, 5, 36, 7, 19, 31, 30, 11, 24, 32, 64, 3, 59, 6, 8, 70], [67, 49, 8, 42, 68, 40, 10, 50, 28, 27, 64, 48, 59, 1, 33, 5, 36, 4, 70, 55, 69, 11, 24, 32], [8, 42, 38, 57, 48, 22, 17, 2, 9, 1, 33, 19, 29, 30, 11, 24, 12, 26, 62, 16], [12, 16, 6, 13, 42, 38, 40, 10, 65, 22, 9, 66, 21, 1, 33, 5, 7, 25, 31, 49, 62, 54], [70, 55, 22, 63, 66, 17, 60, 53, 34, 21, 49, 41, 54, 7, 31, 30, 4, 24, 32, 47, 52, 3, 35, 50, 57, 51, 61, 39, 18], [52, 33, 5, 36, 7, 19, 31, 29, 61, 32, 35, 12, 64, 48, 16, 65, 70, 69, 46, 63, 60, 56, 53, 22, 28, 54, 17, 2, 9, 41], [61, 22, 17, 2, 34, 47, 41, 1, 36, 25, 44, 29, 30, 63, 66, 67, 3, 35, 26, 49, 62, 54, 43, 39, 8, 38, 52, 18, 51], [3, 35, 26, 15, 6, 43, 70, 46, 63, 66, 18, 60, 56, 10, 22, 28, 48, 2, 37, 34, 50, 41, 45, 36, 25, 31, 11], [57, 1, 61, 33, 7, 3, 35, 59, 26, 16, 65, 6, 43, 39, 70, 42, 46, 40, 67, 14, 49, 58, 28, 20, 9], [65, 55, 36, 19, 29, 30, 4, 11, 60, 56, 3, 12, 58, 54, 6, 13, 68, 46, 52, 40, 64, 48, 27], [47, 1, 36, 7, 25, 19, 70, 69, 4, 11, 24, 32, 63, 26, 60, 6, 13, 39, 54, 38, 68, 46, 51, 10, 57, 61, 28, 17, 48, 2, 27, 34, 21], [59, 6, 39, 8, 38, 70, 46, 40, 10, 14, 67, 56, 58, 17, 2, 27, 9, 47, 23, 1, 36, 31, 29, 4, 32, 3, 35], [59, 35, 70, 55, 6, 13, 39, 8, 38, 46, 56, 51, 52, 10, 14, 68, 22, 17, 48, 27, 21, 47, 23, 33, 45, 36, 7, 29, 30, 64], [46, 51, 10, 59, 14, 54, 22, 70, 69, 63, 27, 20, 37, 34, 67, 60, 33, 5, 36, 25, 31, 11, 68, 3, 26, 16, 57, 13, 43, 38], [15, 13, 42, 40, 69, 18, 51, 63, 66, 54, 49, 53, 2, 27, 9, 68, 34, 21, 47, 1, 5, 36, 25, 31, 29, 3, 35, 12], [50, 1, 5, 62, 44, 31, 30, 4, 24, 35, 16, 61, 13, 39, 8, 64, 46, 18, 52, 10, 69, 55, 17, 2, 20, 60, 37], [32, 26, 15, 38, 66, 60, 18, 51, 10, 14, 53, 68, 28, 27, 20, 50, 21, 23, 33, 36, 25, 19, 31], [70, 69, 14, 54, 53, 22, 55, 67, 60, 17, 20, 9, 50, 21, 62, 68, 5, 36, 25, 29, 4, 3, 12, 26, 61, 16, 43, 42, 40], [16, 8, 42, 59, 46, 70, 51, 52, 63, 66, 58, 49, 22, 55, 28, 2, 9, 37, 47, 36, 19, 29, 11, 32, 12, 57], [48, 27, 37, 50, 69, 47, 41, 63, 5, 66, 19, 31, 29, 30, 24, 26, 57, 16, 6, 13, 8, 38, 59, 46, 52, 10, 22, 28, 17], [24, 35, 12, 57, 69, 6, 8, 42, 66, 59, 40, 28, 17, 48, 2, 20, 9, 37, 21, 23, 41, 33, 5, 45, 7, 19, 44, 29], [42, 38, 46, 18, 61, 52, 14, 49, 56, 60, 22, 55, 17, 48, 27, 20, 9, 37, 34, 21, 47, 41, 5, 7, 19, 31, 4, 12, 65, 16, 69, 39], [28, 17, 20, 37, 21, 47, 7, 70, 69, 29, 30, 4, 24, 32, 66, 26, 57, 16, 15, 6, 43, 8, 42, 38, 40, 51, 10, 54], [51, 67, 28, 2, 20, 9, 68, 37, 34, 50, 21, 47, 23, 5, 45, 36, 19, 16, 6, 8, 63, 70], [13, 42, 38, 46, 61, 62, 58, 49, 56, 60, 22, 28, 48, 64, 2, 20, 9, 33, 45, 36, 7, 25, 19, 29, 4, 11, 24, 35, 12, 15], [15, 13, 43, 8, 42, 38, 65, 59, 70, 18, 14, 53, 55, 28, 48, 27, 37, 34, 50, 23, 33, 25, 30, 4], [4, 11, 3, 12, 26, 16, 6, 43, 8, 42, 65, 59, 51, 52, 10, 54, 58, 56, 55, 9, 34, 23, 41, 1, 36], [59, 18, 61, 52, 62, 56, 22, 55, 64, 2, 27, 20, 37, 34, 47, 1, 5, 36, 25, 30, 70, 11, 24, 3, 35, 26, 57, 6, 43, 39, 8, 63, 38], [59, 46, 40, 18, 52, 10, 54, 49, 53, 60, 67, 55, 64, 27, 20, 9, 34, 50, 47, 23, 7, 19, 4, 69, 24, 12, 15, 6, 13, 43, 39, 42, 65]], 36)
round.(value.(model[:x])) = [0.0 0.0 0.0 1.0 0.0 -0.0 -0.0 0.0 0.0 0.0 0.0 0.0 0.0 0.0 0.0 0.0 0.0 0.0 0.0 0.0 0.0 0.0 0.0 0.0 0.0 0.0 0.0 0.0 0.0 0.0 0.0 0.0 0.0 0.0 0.0 0.0; 0.0 0.0 -0.0 0.0 0.0 -0.0 0.0 -0.0 1.0 0.0 0.0 0.0 0.0 0.0 0.0 0.0 0.0 0.0 0.0 0.0 0.0 0.0 0.0 0.0 0.0 0.0 0.0 0.0 0.0 0.0 0.0 0.0 0.0 0.0 0.0 0.0; -0.0 0.0 0.0 0.0 0.0 -0.0 1.0 0.0 0.0 -0.0 0.0 0.0 0.0 0.0 0.0 0.0 0.0 0.0 0.0 0.0 0.0 0.0 0.0 0.0 0.0 0.0 0.0 0.0 0.0 0.0 0.0 0.0 0.0 0.0 0.0 0.0; -0.0 -0.0 -0.0 0.0 0.0 1.0 0.0 -0.0 0.0 0.0 0.0 0.0 0.0 0.0 0.0 0.0 0.0 0.0 0.0 0.0 0.0 0.0 0.0 0.0 0.0 0.0 0.0 0.0 0.0 0.0 0.0 0.0 0.0 0.0 0.0 0.0; 0.0 0.0 -0.0 0.0 0.0 -0.0 -0.0 1.0 0.0 0.0 0.0 0.0 0.0 0.0 0.0 0.0 0.0 0.0 0.0 0.0 0.0 0.0 0.0 0.0 0.0 0.0 0.0 0.0 0.0 0.0 0.0 0.0 0.0 0.0 0.0 0.0; 0.0 0.0 0.0 0.0 0.0 0.0 1.0 0.0 -0.0 0.0 0.0 0.0 0.0 0.0 0.0 0.0 0.0 0.0 0.0 0.0 0.0 0.0 0.0 0.0 0.0 0.0 0.0 0.0 0.0 0.0 0.0 0.0 0.0 0.0 0.0 0.0; 0.0 0.0 0.0 0.0 0.0 1.0 -0.0 -0.0 -0.0 -0.0 0.0 0.0 0.0 0.0 0.0 0.0 0.0 0.0 0.0 0.0 0.0 0.0 0.0 0.0 0.0 0.0 0.0 0.0 0.0 0.0 0.0 0.0 0.0 0.0 0.0 0.0; 0.0 0.0 0.0 0.0 0.0 0.0 0.0 0.0 1.0 0.0 0.0 0.0 0.0 0.0 0.0 0.0 0.0 0.0 0.0 0.0 0.0 0.0 0.0 0.0 0.0 0.0 0.0 0.0 0.0 0.0 0.0 0.0 0.0 0.0 0.0 0.0; 0.0 0.0 0.0 0.0 0.0 0.0 -0.0 1.0 -0.0 0.0 0.0 0.0 0.0 0.0 0.0 0.0 0.0 0.0 0.0 0.0 0.0 0.0 0.0 0.0 0.0 0.0 0.0 0.0 0.0 0.0 0.0 0.0 0.0 0.0 0.0 0.0; -0.0 0.0 0.0 0.0 1.0 0.0 0.0 0.0 0.0 0.0 0.0 0.0 0.0 0.0 0.0 0.0 0.0 0.0 0.0 0.0 0.0 0.0 0.0 0.0 0.0 0.0 0.0 0.0 0.0 0.0 0.0 0.0 0.0 0.0 0.0 0.0; 0.0 0.0 0.0 0.0 0.0 1.0 0.0 0.0 0.0 0.0 0.0 0.0 0.0 0.0 0.0 0.0 0.0 0.0 0.0 0.0 0.0 0.0 0.0 0.0 0.0 0.0 0.0 0.0 0.0 0.0 0.0 0.0 0.0 0.0 0.0 0.0; 0.0 1.0 -0.0 0.0 0.0 -0.0 0.0 0.0 0.0 -0.0 0.0 0.0 0.0 0.0 0.0 0.0 0.0 0.0 0.0 0.0 0.0 0.0 0.0 0.0 0.0 0.0 0.0 0.0 0.0 0.0 0.0 0.0 0.0 0.0 0.0 0.0; 1.0 0.0 0.0 0.0 0.0 0.0 0.0 0.0 0.0 -0.0 0.0 0.0 0.0 0.0 0.0 0.0 0.0 0.0 0.0 0.0 0.0 0.0 0.0 0.0 0.0 0.0 0.0 0.0 0.0 0.0 0.0 0.0 0.0 0.0 0.0 0.0; 0.0 0.0 0.0 0.0 1.0 -0.0 -0.0 0.0 -0.0 0.0 0.0 0.0 0.0 0.0 0.0 0.0 0.0 0.0 0.0 0.0 0.0 0.0 0.0 0.0 0.0 0.0 0.0 0.0 0.0 0.0 0.0 0.0 0.0 0.0 0.0 0.0; 0.0 0.0 1.0 0.0 -0.0 0.0 0.0 0.0 0.0 0.0 0.0 0.0 0.0 0.0 0.0 0.0 0.0 0.0 0.0 0.0 0.0 0.0 0.0 0.0 0.0 0.0 0.0 0.0 0.0 0.0 0.0 0.0 0.0 0.0 0.0 0.0; 0.0 -0.0 0.0 0.0 1.0 0.0 -0.0 0.0 0.0 0.0 0.0 0.0 0.0 0.0 0.0 0.0 0.0 0.0 0.0 0.0 0.0 0.0 0.0 0.0 0.0 0.0 0.0 0.0 0.0 0.0 0.0 0.0 0.0 0.0 0.0 0.0; 0.0 0.0 1.0 0.0 0.0 0.0 0.0 0.0 -0.0 0.0 0.0 0.0 0.0 0.0 0.0 0.0 0.0 0.0 0.0 0.0 0.0 0.0 0.0 0.0 0.0 0.0 0.0 0.0 0.0 0.0 0.0 0.0 0.0 0.0 0.0 0.0; 0.0 0.0 0.0 -0.0 0.0 -0.0 -0.0 0.0 0.0 1.0 0.0 0.0 0.0 0.0 0.0 0.0 0.0 0.0 0.0 0.0 0.0 0.0 0.0 0.0 0.0 0.0 0.0 0.0 0.0 0.0 0.0 0.0 0.0 0.0 0.0 0.0; 0.0 0.0 0.0 0.0 1.0 0.0 0.0 0.0 0.0 -0.0 0.0 0.0 0.0 0.0 0.0 0.0 0.0 0.0 0.0 0.0 0.0 0.0 0.0 0.0 0.0 0.0 0.0 0.0 0.0 0.0 0.0 0.0 0.0 0.0 0.0 0.0; 0.0 -0.0 0.0 0.0 0.0 0.0 0.0 0.0 0.0 1.0 0.0 0.0 0.0 0.0 0.0 0.0 0.0 0.0 0.0 0.0 0.0 0.0 0.0 0.0 0.0 0.0 0.0 0.0 0.0 0.0 0.0 0.0 0.0 0.0 0.0 0.0; 0.0 0.0 0.0 0.0 0.0 0.0 0.0 -0.0 1.0 -0.0 0.0 0.0 0.0 0.0 0.0 0.0 0.0 0.0 0.0 0.0 0.0 0.0 0.0 0.0 0.0 0.0 0.0 0.0 0.0 0.0 0.0 0.0 0.0 0.0 0.0 0.0; -0.0 0.0 0.0 0.0 0.0 1.0 0.0 0.0 0.0 -0.0 0.0 0.0 0.0 0.0 0.0 0.0 0.0 0.0 0.0 0.0 0.0 0.0 0.0 0.0 0.0 0.0 0.0 0.0 0.0 0.0 0.0 0.0 0.0 0.0 0.0 0.0; 0.0 1.0 0.0 0.0 0.0 0.0 -0.0 0.0 0.0 -0.0 0.0 0.0 0.0 0.0 0.0 0.0 0.0 0.0 0.0 0.0 0.0 0.0 0.0 0.0 0.0 0.0 0.0 0.0 0.0 0.0 0.0 0.0 0.0 0.0 0.0 0.0; 0.0 0.0 1.0 0.0 0.0 0.0 -0.0 0.0 -0.0 0.0 0.0 0.0 0.0 0.0 0.0 0.0 0.0 0.0 0.0 0.0 0.0 0.0 0.0 0.0 0.0 0.0 0.0 0.0 0.0 0.0 0.0 0.0 0.0 0.0 0.0 0.0; -0.0 -0.0 0.0 0.0 0.0 0.0 0.0 0.0 1.0 -0.0 0.0 0.0 0.0 0.0 0.0 0.0 0.0 0.0 0.0 0.0 0.0 0.0 0.0 0.0 0.0 0.0 0.0 0.0 0.0 0.0 0.0 0.0 0.0 0.0 0.0 0.0; 0.0 -0.0 0.0 0.0 0.0 -0.0 1.0 0.0 0.0 0.0 0.0 0.0 0.0 0.0 0.0 0.0 0.0 0.0 0.0 0.0 0.0 0.0 0.0 0.0 0.0 0.0 0.0 0.0 0.0 0.0 0.0 0.0 0.0 0.0 0.0 0.0; 1.0 0.0 -0.0 0.0 0.0 0.0 0.0 0.0 0.0 0.0 0.0 0.0 0.0 0.0 0.0 0.0 0.0 0.0 0.0 0.0 0.0 0.0 0.0 0.0 0.0 0.0 0.0 0.0 0.0 0.0 0.0 0.0 0.0 0.0 0.0 0.0; 0.0 0.0 0.0 0.0 1.0 -0.0 0.0 0.0 0.0 0.0 0.0 0.0 0.0 0.0 0.0 0.0 0.0 0.0 0.0 0.0 0.0 0.0 0.0 0.0 0.0 0.0 0.0 0.0 0.0 0.0 0.0 0.0 0.0 0.0 0.0 0.0; 0.0 0.0 1.0 0.0 -0.0 0.0 0.0 0.0 0.0 0.0 0.0 0.0 0.0 0.0 0.0 0.0 0.0 0.0 0.0 0.0 0.0 0.0 0.0 0.0 0.0 0.0 0.0 0.0 0.0 0.0 0.0 0.0 0.0 0.0 0.0 0.0; 0.0 0.0 0.0 1.0 0.0 0.0 0.0 0.0 0.0 0.0 0.0 0.0 0.0 0.0 0.0 0.0 0.0 0.0 0.0 0.0 0.0 0.0 0.0 0.0 0.0 0.0 0.0 0.0 0.0 0.0 0.0 0.0 0.0 0.0 0.0 0.0; 0.0 0.0 0.0 0.0 0.0 0.0 -0.0 1.0 0.0 0.0 0.0 0.0 0.0 0.0 0.0 0.0 0.0 0.0 0.0 0.0 0.0 0.0 0.0 0.0 0.0 0.0 0.0 0.0 0.0 0.0 0.0 0.0 0.0 0.0 0.0 0.0; 0.0 0.0 0.0 1.0 0.0 0.0 -0.0 0.0 0.0 0.0 0.0 0.0 0.0 0.0 0.0 0.0 0.0 0.0 0.0 0.0 0.0 0.0 0.0 0.0 0.0 0.0 0.0 0.0 0.0 0.0 0.0 0.0 0.0 0.0 0.0 0.0; 0.0 0.0 0.0 0.0 0.0 0.0 1.0 0.0 0.0 -0.0 0.0 0.0 0.0 0.0 0.0 0.0 0.0 0.0 0.0 0.0 0.0 0.0 0.0 0.0 0.0 0.0 0.0 0.0 0.0 0.0 0.0 0.0 0.0 0.0 0.0 0.0; 0.0 0.0 0.0 0.0 0.0 0.0 0.0 0.0 0.0 1.0 0.0 0.0 0.0 0.0 0.0 0.0 0.0 0.0 0.0 0.0 0.0 0.0 0.0 0.0 0.0 0.0 0.0 0.0 0.0 0.0 0.0 0.0 0.0 0.0 0.0 0.0; 0.0 0.0 0.0 0.0 0.0 0.0 0.0 -0.0 1.0 0.0 0.0 0.0 0.0 0.0 0.0 0.0 0.0 0.0 0.0 0.0 0.0 0.0 0.0 0.0 0.0 0.0 0.0 0.0 0.0 0.0 0.0 0.0 0.0 0.0 0.0 0.0; 0.0 0.0 0.0 0.0 0.0 0.0 0.0 1.0 0.0 0.0 0.0 0.0 0.0 0.0 0.0 0.0 0.0 0.0 0.0 0.0 0.0 0.0 0.0 0.0 0.0 0.0 0.0 0.0 0.0 0.0 0.0 0.0 0.0 0.0 0.0 0.0; 0.0 1.0 0.0 0.0 0.0 0.0 -0.0 0.0 0.0 0.0 0.0 0.0 0.0 0.0 0.0 0.0 0.0 0.0 0.0 0.0 0.0 0.0 0.0 0.0 0.0 0.0 0.0 0.0 0.0 0.0 0.0 0.0 0.0 0.0 0.0 0.0; 1.0 0.0 0.0 -0.0 0.0 0.0 0.0 0.0 0.0 0.0 0.0 0.0 0.0 0.0 0.0 0.0 0.0 0.0 0.0 0.0 0.0 0.0 0.0 0.0 0.0 0.0 0.0 0.0 0.0 0.0 0.0 0.0 0.0 0.0 0.0 0.0; 0.0 0.0 0.0 1.0 0.0 0.0 -0.0 0.0 0.0 0.0 0.0 0.0 0.0 0.0 0.0 0.0 0.0 0.0 0.0 0.0 0.0 0.0 0.0 0.0 0.0 0.0 0.0 0.0 0.0 0.0 0.0 0.0 0.0 0.0 0.0 0.0; 0.0 0.0 0.0 0.0 0.0 0.0 1.0 0.0 -0.0 0.0 0.0 0.0 0.0 0.0 0.0 0.0 0.0 0.0 0.0 0.0 0.0 0.0 0.0 0.0 0.0 0.0 0.0 0.0 0.0 0.0 0.0 0.0 0.0 0.0 0.0 0.0; 0.0 0.0 0.0 0.0 0.0 0.0 -0.0 1.0 0.0 0.0 0.0 0.0 0.0 0.0 0.0 0.0 0.0 0.0 0.0 0.0 0.0 0.0 0.0 0.0 0.0 0.0 0.0 0.0 0.0 0.0 0.0 0.0 0.0 0.0 0.0 0.0; -0.0 1.0 0.0 0.0 0.0 0.0 0.0 0.0 0.0 0.0 0.0 0.0 0.0 0.0 0.0 0.0 0.0 0.0 0.0 0.0 0.0 0.0 0.0 0.0 0.0 0.0 0.0 0.0 0.0 0.0 0.0 0.0 0.0 0.0 0.0 0.0; 0.0 0.0 0.0 -0.0 0.0 0.0 0.0 0.0 -0.0 1.0 0.0 0.0 0.0 0.0 0.0 0.0 0.0 0.0 0.0 0.0 0.0 0.0 0.0 0.0 0.0 0.0 0.0 0.0 0.0 0.0 0.0 0.0 0.0 0.0 0.0 0.0; 0.0 0.0 0.0 0.0 0.0 0.0 -0.0 -0.0 0.0 1.0 0.0 0.0 0.0 0.0 0.0 0.0 0.0 0.0 0.0 0.0 0.0 0.0 0.0 0.0 0.0 0.0 0.0 0.0 0.0 0.0 0.0 0.0 0.0 0.0 0.0 0.0; 0.0 0.0 1.0 0.0 0.0 0.0 0.0 -0.0 -0.0 -0.0 0.0 0.0 0.0 0.0 0.0 0.0 0.0 0.0 0.0 0.0 0.0 0.0 0.0 0.0 0.0 0.0 0.0 0.0 0.0 0.0 0.0 0.0 0.0 0.0 0.0 0.0; 0.0 0.0 0.0 -0.0 1.0 0.0 0.0 0.0 0.0 0.0 0.0 0.0 0.0 0.0 0.0 0.0 0.0 0.0 0.0 0.0 0.0 0.0 0.0 0.0 0.0 0.0 0.0 0.0 0.0 0.0 0.0 0.0 0.0 0.0 0.0 0.0; 1.0 0.0 0.0 -0.0 0.0 0.0 0.0 0.0 0.0 0.0 0.0 0.0 0.0 0.0 0.0 0.0 0.0 0.0 0.0 0.0 0.0 0.0 0.0 0.0 0.0 0.0 0.0 0.0 0.0 0.0 0.0 0.0 0.0 0.0 0.0 0.0; 0.0 0.0 0.0 -0.0 1.0 0.0 0.0 0.0 0.0 0.0 0.0 0.0 0.0 0.0 0.0 0.0 0.0 0.0 0.0 0.0 0.0 0.0 0.0 0.0 0.0 0.0 0.0 0.0 0.0 0.0 0.0 0.0 0.0 0.0 0.0 0.0; 1.0 0.0 0.0 0.0 0.0 0.0 0.0 0.0 -0.0 0.0 0.0 0.0 0.0 0.0 0.0 0.0 0.0 0.0 0.0 0.0 0.0 0.0 0.0 0.0 0.0 0.0 0.0 0.0 0.0 0.0 0.0 0.0 0.0 0.0 0.0 0.0; -0.0 0.0 1.0 0.0 0.0 0.0 0.0 0.0 0.0 0.0 0.0 0.0 0.0 0.0 0.0 0.0 0.0 0.0 0.0 0.0 0.0 0.0 0.0 0.0 0.0 0.0 0.0 0.0 0.0 0.0 0.0 0.0 0.0 0.0 0.0 0.0; -0.0 -0.0 0.0 0.0 0.0 0.0 0.0 0.0 1.0 -0.0 0.0 0.0 0.0 0.0 0.0 0.0 0.0 0.0 0.0 0.0 0.0 0.0 0.0 0.0 0.0 0.0 0.0 0.0 0.0 0.0 0.0 0.0 0.0 0.0 0.0 0.0; 0.0 1.0 -0.0 0.0 0.0 0.0 -0.0 0.0 -0.0 0.0 0.0 0.0 0.0 0.0 0.0 0.0 0.0 0.0 0.0 0.0 0.0 0.0 0.0 0.0 0.0 0.0 0.0 0.0 0.0 0.0 0.0 0.0 0.0 0.0 0.0 0.0; -0.0 -0.0 0.0 0.0 0.0 0.0 0.0 0.0 0.0 1.0 0.0 0.0 0.0 0.0 0.0 0.0 0.0 0.0 0.0 0.0 0.0 0.0 0.0 0.0 0.0 0.0 0.0 0.0 0.0 0.0 0.0 0.0 0.0 0.0 0.0 0.0; 0.0 0.0 0.0 0.0 0.0 0.0 0.0 0.0 0.0 1.0 0.0 0.0 0.0 0.0 0.0 0.0 0.0 0.0 0.0 0.0 0.0 0.0 0.0 0.0 0.0 0.0 0.0 0.0 0.0 0.0 0.0 0.0 0.0 0.0 0.0 0.0; 0.0 0.0 1.0 -0.0 0.0 0.0 0.0 0.0 -0.0 0.0 0.0 0.0 0.0 0.0 0.0 0.0 0.0 0.0 0.0 0.0 0.0 0.0 0.0 0.0 0.0 0.0 0.0 0.0 0.0 0.0 0.0 0.0 0.0 0.0 0.0 0.0; 0.0 0.0 0.0 0.0 -0.0 1.0 0.0 0.0 0.0 0.0 0.0 0.0 0.0 0.0 0.0 0.0 0.0 0.0 0.0 0.0 0.0 0.0 0.0 0.0 0.0 0.0 0.0 0.0 0.0 0.0 0.0 0.0 0.0 0.0 0.0 0.0; 0.0 0.0 0.0 0.0 0.0 0.0 1.0 -0.0 0.0 -0.0 0.0 0.0 0.0 0.0 0.0 0.0 0.0 0.0 0.0 0.0 0.0 0.0 0.0 0.0 0.0 0.0 0.0 0.0 0.0 0.0 0.0 0.0 0.0 0.0 0.0 0.0; -0.0 0.0 0.0 0.0 0.0 1.0 0.0 -0.0 -0.0 0.0 0.0 0.0 0.0 0.0 0.0 0.0 0.0 0.0 0.0 0.0 0.0 0.0 0.0 0.0 0.0 0.0 0.0 0.0 0.0 0.0 0.0 0.0 0.0 0.0 0.0 0.0; 0.0 0.0 0.0 1.0 0.0 -0.0 -0.0 0.0 -0.0 0.0 0.0 0.0 0.0 0.0 0.0 0.0 0.0 0.0 0.0 0.0 0.0 0.0 0.0 0.0 0.0 0.0 0.0 0.0 0.0 0.0 0.0 0.0 0.0 0.0 0.0 0.0; 0.0 0.0 0.0 0.0 0.0 0.0 -0.0 0.0 0.0 1.0 0.0 0.0 0.0 0.0 0.0 0.0 0.0 0.0 0.0 0.0 0.0 0.0 0.0 0.0 0.0 0.0 0.0 0.0 0.0 0.0 0.0 0.0 0.0 0.0 0.0 0.0; -0.0 -0.0 0.0 0.0 0.0 0.0 0.0 0.0 0.0 1.0 0.0 0.0 0.0 0.0 0.0 0.0 0.0 0.0 0.0 0.0 0.0 0.0 0.0 0.0 0.0 0.0 0.0 0.0 0.0 0.0 0.0 0.0 0.0 0.0 0.0 0.0; 1.0 0.0 0.0 0.0 0.0 -0.0 0.0 0.0 0.0 0.0 0.0 0.0 0.0 0.0 0.0 0.0 0.0 0.0 0.0 0.0 0.0 0.0 0.0 0.0 0.0 0.0 0.0 0.0 0.0 0.0 0.0 0.0 0.0 0.0 0.0 0.0; 0.0 0.0 -0.0 0.0 0.0 -0.0 1.0 0.0 0.0 -0.0 0.0 0.0 0.0 0.0 0.0 0.0 0.0 0.0 0.0 0.0 0.0 0.0 0.0 0.0 0.0 0.0 0.0 0.0 0.0 0.0 0.0 0.0 0.0 0.0 0.0 0.0; -0.0 0.0 0.0 0.0 0.0 -0.0 -0.0 1.0 -0.0 0.0 0.0 0.0 0.0 0.0 0.0 0.0 0.0 0.0 0.0 0.0 0.0 0.0 0.0 0.0 0.0 0.0 0.0 0.0 0.0 0.0 0.0 0.0 0.0 0.0 0.0 0.0; 0.0 0.0 -0.0 1.0 -0.0 0.0 0.0 -0.0 0.0 -0.0 0.0 0.0 0.0 0.0 0.0 0.0 0.0 0.0 0.0 0.0 0.0 0.0 0.0 0.0 0.0 0.0 0.0 0.0 0.0 0.0 0.0 0.0 0.0 0.0 0.0 0.0; 0.0 0.0 0.0 1.0 0.0 0.0 0.0 0.0 0.0 -0.0 0.0 0.0 0.0 0.0 0.0 0.0 0.0 0.0 0.0 0.0 0.0 0.0 0.0 0.0 0.0 0.0 0.0 0.0 0.0 0.0 0.0 0.0 0.0 0.0 0.0 0.0; 0.0 0.0 0.0 0.0 0.0 0.0 -0.0 1.0 0.0 0.0 0.0 0.0 0.0 0.0 0.0 0.0 0.0 0.0 0.0 0.0 0.0 0.0 0.0 0.0 0.0 0.0 0.0 0.0 0.0 0.0 0.0 0.0 0.0 0.0 0.0 0.0; 1.0 0.0 -0.0 0.0 0.0 0.0 0.0 0.0 0.0 -0.0 0.0 0.0 0.0 0.0 0.0 0.0 0.0 0.0 0.0 0.0 0.0 0.0 0.0 0.0 0.0 0.0 0.0 0.0 0.0 0.0 0.0 0.0 0.0 0.0 0.0 0.0; 0.0 -0.0 0.0 0.0 1.0 0.0 0.0 0.0 0.0 0.0 0.0 0.0 0.0 0.0 0.0 0.0 0.0 0.0 0.0 0.0 0.0 0.0 0.0 0.0 0.0 0.0 0.0 0.0 0.0 0.0 0.0 0.0 0.0 0.0 0.0 0.0; 0.0 0.0 0.0 0.0 0.0 -0.0 0.0 0.0 1.0 0.0 0.0 0.0 0.0 0.0 0.0 0.0 0.0 0.0 0.0 0.0 0.0 0.0 0.0 0.0 0.0 0.0 0.0 0.0 0.0 0.0 0.0 0.0 0.0 0.0 0.0 0.0]
round.(value.(model[:y])) = [1.0, 1.0, 1.0, 1.0, 1.0, 1.0, 1.0, 1.0, 1.0, 1.0, 0.0, 0.0, 0.0, 0.0, 0.0, 0.0, 0.0, 0.0, 0.0, 0.0, 0.0, 0.0, 0.0, 0.0, 0.0, 0.0, 0.0, 0.0, 0.0, 0.0, 0.0, 0.0, 0.0, 0.0, 0.0, 0.0]
(n, m, A) = (70, 966, [[10, 21, 52, 50, 57, 26, 35, 20, 40, 48, 17, 24, 28, 38, 69, 22, 44, 19, 25, 56, 53, 45, 43, 33, 68, 41, 23], [40, 48, 17, 32, 65, 69, 4, 22, 42, 66, 31, 44, 60, 56, 53, 5, 49, 13, 62, 23, 16, 47, 52, 34, 57], [49, 15, 68, 50, 34, 51, 37, 18, 9, 46, 48, 17, 59, 32, 38, 55, 69, 4, 42, 30, 31, 19, 7, 56, 36, 53, 39], [68, 41, 52, 57, 51, 26, 9, 40, 64, 2, 46, 17, 59, 24, 28, 38, 70, 63, 66, 3, 19, 8, 67, 36, 53, 39, 5, 43, 33, 6], [47, 21, 57, 61, 12, 35, 59, 24, 65, 38, 55, 69, 22, 42, 30, 63, 2, 8, 56, 45, 43, 13, 4, 62], [7, 53, 45, 49, 62, 54, 68, 41, 10, 52, 50, 34, 51, 61, 18, 35, 20, 27, 64, 17, 65, 70, 11, 69, 42, 4], [6, 47, 10, 52, 50, 12, 18, 20, 27, 64, 46, 32, 24, 70, 42, 63, 66, 31, 19, 8, 25, 45, 33, 3, 62, 54, 23, 16], [29, 31, 44, 67, 60, 53, 43, 33, 13, 15, 62, 54, 68, 57, 61, 37, 18, 20, 64, 5, 48, 7, 32, 4, 65, 38, 69, 11, 42, 30], [26, 12, 37, 20, 59, 4, 65, 38, 70, 11, 3, 42, 63, 66, 29, 44, 60, 56, 53, 45, 33, 62, 68, 47, 10, 50], [1, 7, 24, 38, 70, 55, 11, 42, 30, 29, 31, 6, 53, 45, 43, 49, 33, 13, 58, 54, 68, 23, 21, 52, 34, 57, 61, 12, 20, 9, 40, 64], [68, 23, 10, 52, 51, 37, 40, 9, 32, 24, 38, 55, 69, 42, 66, 29, 31, 44, 19, 25, 60, 36, 6, 43, 49, 33, 8, 15], [45, 39, 33, 9, 62, 68, 14, 5, 7, 47, 51, 26, 35, 20, 59, 24, 70, 10, 22, 63, 66, 31, 44, 25, 60, 56], [66, 29, 19, 67, 56, 36, 45, 33, 8, 15, 54, 23, 14, 52, 10, 57, 51, 61, 35, 2, 17, 32, 24, 5, 70, 55, 30], [59, 32, 24, 12, 55, 42, 30, 63, 13, 67, 25, 53, 58, 54, 50, 26, 37, 35, 40], [19, 67, 56, 3, 49, 33, 58, 13, 8, 23, 34, 26, 37, 35, 64, 32, 70, 11, 66], [25, 60, 45, 39, 68, 41, 47, 21, 50, 57, 61, 37, 35, 27, 64, 17, 59, 32, 65, 2, 38, 55, 22, 30, 63, 29, 31, 44, 7], [37, 20, 40, 64, 46, 48, 59, 32, 2, 38, 1, 30, 63, 4, 31, 44, 53, 3, 16, 62, 54, 6, 13, 41, 23, 47, 21, 52, 57, 26, 61], [28, 38, 70, 69, 22, 63, 29, 7, 67, 25, 56, 49, 3, 58, 23, 6, 21, 8, 57, 26, 40, 46, 48, 32], [15, 13, 47, 52, 34, 51, 61, 65, 38, 70, 42, 30, 63, 1, 66, 7, 44, 60, 4, 36, 11, 3, 58, 62, 41], [37, 17, 35, 9, 27, 40, 64, 59, 1, 7, 65, 70, 55, 69, 22, 12, 63, 66, 31, 25, 6, 8, 39, 58, 62, 41, 10, 50, 57], [1, 5, 26, 27, 64, 46, 59, 16, 32, 24, 28, 65, 30, 63, 18, 10, 56, 45, 39, 33, 58, 62, 54, 17, 52], [46, 48, 18, 59, 32, 55, 69, 63, 66, 29, 2, 31, 44, 20, 25, 60, 45, 49, 1, 5, 54, 41, 23, 47, 12, 34, 16, 26, 61, 37, 35], [11, 34, 26, 35, 15, 13, 40, 24, 65, 18, 38, 70, 10, 29, 22, 67, 53, 17, 39, 2, 58, 62, 54, 68, 1, 7], [62, 41, 10, 14, 52, 57, 26, 61, 37, 21, 23, 64, 1, 5, 46, 7, 32, 4, 11, 28, 70, 69, 12, 42, 30, 66, 13, 31, 44, 36, 39, 43], [16, 52, 34, 18, 40, 14, 48, 59, 22, 20, 55, 69, 66, 29, 31, 1, 67, 7, 56, 36, 11, 45, 49, 33, 58, 12], [9, 39, 49, 21, 58, 23, 1, 68, 4, 24, 52, 50, 12, 61, 35, 15, 64, 48, 59, 18, 38, 55, 14, 69, 22, 44, 17, 36], [61, 37, 20, 40, 21, 7, 28, 70, 55, 69, 63, 16, 67, 56, 36, 6, 53, 39, 43, 33, 58, 54, 52, 34, 51], [35, 18, 64, 32, 65, 27, 42, 30, 21, 66, 1, 67, 60, 39, 43, 4, 49, 24, 58, 62, 47, 52, 50, 34, 61], [13, 8, 47, 34, 51, 18, 61, 37, 10, 64, 48, 22, 59, 9, 23, 30, 66, 25, 31, 44, 11, 60, 56, 36, 53, 39, 33, 62, 54, 16, 41], [57, 10, 51, 14, 61, 37, 35, 28, 64, 17, 46, 48, 21, 5, 69, 19, 29, 42, 24, 31, 44, 3, 67, 16, 13, 54, 8], [8, 47, 57, 61, 37, 35, 10, 46, 22, 32, 17, 2, 20, 55, 42, 63, 7, 25, 29, 30, 11, 56, 24, 53, 45, 39, 49, 3, 12, 58, 16], [58, 14, 47, 22, 28, 52, 17, 34, 2, 21, 37, 7, 31, 64, 46, 11, 24, 3, 16, 42, 15, 13, 8, 60, 36, 53, 43, 18], [47, 12, 50, 34, 15, 13, 8, 37, 35, 10, 38, 55, 42, 66, 27, 9, 44, 67, 36, 21, 45, 39, 43, 1, 7, 25, 29, 58, 62, 54, 4, 11, 41], [23, 33, 25, 19, 29, 32, 46, 3, 48, 65, 15, 6, 70, 55, 69, 42, 63, 67, 56, 10, 49, 68, 41, 22, 28, 2, 27, 52], [28, 49, 62, 54, 20, 41, 23, 47, 1, 33, 5, 31, 50, 57, 30, 12, 26, 16, 15, 46, 6, 13, 48, 69, 66, 14, 56, 53, 22], [47, 13, 52, 51, 40, 48, 59, 65, 38, 55, 69, 27, 42, 66, 33, 60, 56, 25, 19, 29, 53, 4, 11, 43, 49, 24, 32, 58, 54, 3, 68, 26], [17, 61, 27, 20, 9, 40, 64, 33, 31, 29, 30, 11, 24, 32, 65, 3, 55, 69, 16, 63, 15, 8, 67, 60, 39, 49, 62, 14, 22, 57], [63, 18, 66, 44, 10, 67, 53, 45, 39, 58, 54, 17, 41, 9, 52, 23, 1, 33, 5, 36, 19, 61, 4, 11, 3, 40, 26, 64, 48, 16, 8, 55, 69], [12, 26, 16, 53, 38, 54, 52, 50, 57, 28, 27, 20, 40, 37, 46, 21, 48, 23, 33, 31, 29, 4, 70, 69, 24, 3, 63], [70, 42, 17, 2, 27, 20, 37, 56, 53, 23, 45, 43, 1, 36, 25, 62, 4, 11, 41, 50, 51, 39, 38, 64, 18, 59, 10, 14], [4, 24, 35, 61, 16, 6, 46, 48, 38, 40, 42, 63, 22, 17, 20, 49, 34, 62, 68, 1, 33, 19, 29, 47], [63, 66, 40, 44, 67, 60, 56, 10, 45, 14, 43, 62, 68, 28, 2, 9, 34, 50, 41, 33, 5, 36, 7, 19, 31, 30, 11, 24, 32, 64, 3, 59, 6, 8, 70], [67, 49, 8, 42, 68, 40, 10, 50, 28, 27, 64, 48, 59, 1, 33, 5, 36, 4, 70, 55, 69, 11, 24, 32], [8, 42, 38, 57, 48, 22, 17, 2, 9, 1, 33, 19, 29, 30, 11, 24, 12, 26, 62, 16], [12, 16, 6, 13, 42, 38, 40, 10, 65, 22, 9, 66, 21, 1, 33, 5, 7, 25, 31, 49, 62, 54], [70, 55, 22, 63, 66, 17, 60, 53, 34, 21, 49, 41, 54, 7, 31, 30, 4, 24, 32, 47, 52, 3, 35, 50, 57, 51, 61, 39, 18], [52, 33, 5, 36, 7, 19, 31, 29, 61, 32, 35, 12, 64, 48, 16, 65, 70, 69, 46, 63, 60, 56, 53, 22, 28, 54, 17, 2, 9, 41], [61, 22, 17, 2, 34, 47, 41, 1, 36, 25, 44, 29, 30, 63, 66, 67, 3, 35, 26, 49, 62, 54, 43, 39, 8, 38, 52, 18, 51], [3, 35, 26, 15, 6, 43, 70, 46, 63, 66, 18, 60, 56, 10, 22, 28, 48, 2, 37, 34, 50, 41, 45, 36, 25, 31, 11], [57, 1, 61, 33, 7, 3, 35, 59, 26, 16, 65, 6, 43, 39, 70, 42, 46, 40, 67, 14, 49, 58, 28, 20, 9], [65, 55, 36, 19, 29, 30, 4, 11, 60, 56, 3, 12, 58, 54, 6, 13, 68, 46, 52, 40, 64, 48, 27], [47, 1, 36, 7, 25, 19, 70, 69, 4, 11, 24, 32, 63, 26, 60, 6, 13, 39, 54, 38, 68, 46, 51, 10, 57, 61, 28, 17, 48, 2, 27, 34, 21], [59, 6, 39, 8, 38, 70, 46, 40, 10, 14, 67, 56, 58, 17, 2, 27, 9, 47, 23, 1, 36, 31, 29, 4, 32, 3, 35], [59, 35, 70, 55, 6, 13, 39, 8, 38, 46, 56, 51, 52, 10, 14, 68, 22, 17, 48, 27, 21, 47, 23, 33, 45, 36, 7, 29, 30, 64], [46, 51, 10, 59, 14, 54, 22, 70, 69, 63, 27, 20, 37, 34, 67, 60, 33, 5, 36, 25, 31, 11, 68, 3, 26, 16, 57, 13, 43, 38], [15, 13, 42, 40, 69, 18, 51, 63, 66, 54, 49, 53, 2, 27, 9, 68, 34, 21, 47, 1, 5, 36, 25, 31, 29, 3, 35, 12], [50, 1, 5, 62, 44, 31, 30, 4, 24, 35, 16, 61, 13, 39, 8, 64, 46, 18, 52, 10, 69, 55, 17, 2, 20, 60, 37], [32, 26, 15, 38, 66, 60, 18, 51, 10, 14, 53, 68, 28, 27, 20, 50, 21, 23, 33, 36, 25, 19, 31], [70, 69, 14, 54, 53, 22, 55, 67, 60, 17, 20, 9, 50, 21, 62, 68, 5, 36, 25, 29, 4, 3, 12, 26, 61, 16, 43, 42, 40], [16, 8, 42, 59, 46, 70, 51, 52, 63, 66, 58, 49, 22, 55, 28, 2, 9, 37, 47, 36, 19, 29, 11, 32, 12, 57], [48, 27, 37, 50, 69, 47, 41, 63, 5, 66, 19, 31, 29, 30, 24, 26, 57, 16, 6, 13, 8, 38, 59, 46, 52, 10, 22, 28, 17], [24, 35, 12, 57, 69, 6, 8, 42, 66, 59, 40, 28, 17, 48, 2, 20, 9, 37, 21, 23, 41, 33, 5, 45, 7, 19, 44, 29], [42, 38, 46, 18, 61, 52, 14, 49, 56, 60, 22, 55, 17, 48, 27, 20, 9, 37, 34, 21, 47, 41, 5, 7, 19, 31, 4, 12, 65, 16, 69, 39], [28, 17, 20, 37, 21, 47, 7, 70, 69, 29, 30, 4, 24, 32, 66, 26, 57, 16, 15, 6, 43, 8, 42, 38, 40, 51, 10, 54], [51, 67, 28, 2, 20, 9, 68, 37, 34, 50, 21, 47, 23, 5, 45, 36, 19, 16, 6, 8, 63, 70], [13, 42, 38, 46, 61, 62, 58, 49, 56, 60, 22, 28, 48, 64, 2, 20, 9, 33, 45, 36, 7, 25, 19, 29, 4, 11, 24, 35, 12, 15], [15, 13, 43, 8, 42, 38, 65, 59, 70, 18, 14, 53, 55, 28, 48, 27, 37, 34, 50, 23, 33, 25, 30, 4], [4, 11, 3, 12, 26, 16, 6, 43, 8, 42, 65, 59, 51, 52, 10, 54, 58, 56, 55, 9, 34, 23, 41, 1, 36], [59, 18, 61, 52, 62, 56, 22, 55, 64, 2, 27, 20, 37, 34, 47, 1, 5, 36, 25, 30, 70, 11, 24, 3, 35, 26, 57, 6, 43, 39, 8, 63, 38], [59, 46, 40, 18, 52, 10, 54, 49, 53, 60, 67, 55, 64, 27, 20, 9, 34, 50, 47, 23, 7, 19, 4, 69, 24, 12, 15, 6, 13, 43, 39, 42, 65]])
 1 (4), 2 (9), 3 (7), 4 (6), 5 (8), 6 (7), 7 (6), 8 (9), 9 (8), 10 (5), 11 (6), 12 (2), 13 (1), 14 (5), 15 (3), 16 (5), 17 (3), 18 (10), 19 (5), 20 (10), 21 (9), 22 (6), 23 (2), 24 (3), 25 (9), 26 (7), 27 (1), 28 (5), 29 (3), 30 (4), 31 (8), 32 (4), 33 (7), 34 (10), 35 (9), 36 (8), 37 (2), 38 (1), 39 (4), 40 (7), 41 (8), 42 (2), 43 (10), 44 (10), 45 (3), 46 (5), 47 (1), 48 (5), 49 (1), 50 (3), 51 (9), 52 (2), 53 (10), 54 (10), 55 (3), 56 (6), 57 (7), 58 (6), 59 (4), 60 (10), 61 (10), 62 (1), 63 (7), 64 (8), 65 (4), 66 (4), 67 (8), 68 (1), 69 (5), 70 (9),
objective_bound(model) = 7.000000000000057
objective_value(model) = 10.00000000000001
